\* Problem: Unknown *\

Maximize
 obj: + xp_0_0 + xp_0_1 + xp_0_2 + xp_0_3 + xp_0_4 + xp_0_5 + xp_0_6
 + xp_1_0 + xp_1_1 + xp_1_2 + xp_2_0 + xp_2_1 + xp_2_2 + xp_2_3 + xp_2_4
 + xp_3_0 + xp_3_1 + xp_3_2 + xp_4_0 + xp_5_0 + xp_5_1 + xp_5_2 + xp_6_0
 + xp_6_1 + xp_7_0 + xp_7_1 + xp_8_0 + xp_8_1 + xp_9_0 + xp_10_0
 + xp_11_0 + xp_11_1 + xp_11_2 + xp_11_3 + xp_12_0 + xp_13_0 + xp_13_1
 + xp_14_0 + xp_14_1 + xp_15_0 + xp_16_0 + xp_17_0 + xp_17_1 + xp_17_2
 + xp_17_3 + xp_18_0 + xp_18_1 + xp_18_2 + xp_18_3 + xp_18_4 + xp_19_0
 + xp_19_1 + xp_19_2 + xp_19_3 + xp_19_4 + xp_20_0 + xp_20_1 + xp_20_2
 + xp_20_3 + xp_20_4 + xp_21_0 + xp_21_1 + xp_21_2 + xp_21_3 + xp_21_4
 + xp_22_0 + xp_22_1 + xp_22_2 + xp_22_3 + xp_22_4 + xp_22_5 + xp_23_0
 + xp_23_1 + xp_23_2 + xp_23_3

Subject To
 r_1: 0 xp_0_0 <= 29.4574468085106
 r_2: + xp_23_2 + xp_22_3 + xp_18_4 + xp_5_1 + xp_2_2
 <= 29.0077821011673
 r_3: + xp_23_3 + xp_21_4 + xp_18_2 + xp_0_4 <= 30
 r_4: + xp_18_3 + xp_15_0 <= 30
 r_5: + xp_18_0 <= 28.3056478405316
 r_6: + xp_18_1 <= 30
 r_7: + xp_20_4 <= 29.4574468085106
 r_8: + xp_22_4 + xp_11_3 + xp_5_2 + xp_3_2 + xp_2_1 <= 29.0077821011673
 r_9: + xp_11_1 + xp_3_1 <= 30
 r_10: + xp_17_2 + xp_3_0 <= 30
 r_11: + xp_18_1 + xp_11_2 <= 28.3056478405316
 r_12: + xp_11_0 <= 30
 r_13: 0 xp_0_0 <= 30
 r_14: + xp_21_2 + xp_19_1 + xp_14_0 + xp_0_6 + xp_0_1
 <= 29.0077821011673
 r_15: + xp_21_0 + xp_19_3 <= 29.4574468085106
 r_16: + xp_22_2 + xp_21_1 + xp_19_4 + xp_0_5 + xp_0_2
 <= 29.4574468085106
 r_17: + xp_0_0 <= 28.3056478405316
 r_18: + xp_21_4 + xp_4_0 + xp_0_4 <= 29.4574468085106
 r_19: + xp_19_0 <= 29.4574468085106
 r_20: + xp_21_3 + xp_19_2 + xp_14_1 + xp_0_3 <= 29.4574468085106
 r_21: + xp_20_1 <= 29.0077821011673
 r_22: + xp_21_2 + xp_20_2 + xp_7_1 <= 29.0077821011673
 r_23: + xp_22_5 + xp_22_4 + xp_22_3 <= 29.0077821011673
 r_24: + xp_23_2 + xp_6_1 + xp_3_2 + xp_0_6 <= 29.0077821011673
 r_25: 0 xp_0_0 <= 29.0077821011673
 r_26: + xp_18_4 + xp_0_3 + xp_0_1 <= 28.3056478405316
 r_27: + xp_11_3 <= 29.0077821011673
 r_28: + xp_19_1 <= 29.0077821011673
 r_29: + xp_20_3 + xp_20_2 <= 29.4574468085106
 r_30: + xp_2_0 <= 29.0077821011673
 r_31: + xp_23_3 + xp_18_2 + xp_3_1 + xp_2_3 + xp_0_4 <= 30
 r_32: + xp_2_4 <= 30
 r_33: + xp_11_1 + xp_2_2 <= 30
 r_34: + xp_19_3 + xp_2_1 <= 30
 r_35: 0 xp_0_0 <= 29.4574468085106
 r_36: + xp_9_0 <= 29.0077821011673
 r_37: + xp_21_1 + xp_13_1 + xp_8_1 + xp_1_2 <= 30
 r_38: + xp_1_1 + xp_0_5 <= 30
 r_39: + xp_19_4 + xp_17_1 <= 30
 r_40: + xp_0_2 <= 28.3056478405316
 r_41: + xp_12_0 + xp_2_3 <= 29.0077821011673
 r_42: + xp_21_1 <= 30
 r_43: + xp_16_0 <= 30
 r_44: + xp_23_3 + xp_23_2 + xp_23_1 + xp_1_2 <= 30
 r_45: + xp_3_2 + xp_3_1 <= 30
 r_46: + xp_18_2 + xp_0_6 + xp_0_4 <= 28.3056478405316
 r_47: + xp_22_1 + xp_13_1 <= 30
 r_48: + xp_13_0 <= 30
 r_49: + xp_17_3 <= 30
 r_50: + xp_0_5 <= 28.3056478405316
 r_51: + xp_8_1 + xp_1_2 + xp_1_1 <= 30
 r_52: + xp_8_0 <= 30
 r_53: + xp_1_0 <= 30
 r_54: + xp_18_3 <= 28.3056478405316
 r_55: 0 xp_0_0 <= 30
 r_56: + xp_19_4 <= 30
 r_57: + xp_22_2 <= 28.3056478405316
 r_58: + xp_22_5 + xp_6_1 + xp_5_0 <= 28.3056478405316
 r_59: + xp_22_0 + xp_17_1 <= 28.3056478405316
 r_60: + xp_23_1 + xp_6_0 <= 28.3056478405316
 r_61: + xp_23_0 + xp_22_1 + xp_17_3 <= 28.3056478405316
 r_62: + xp_17_0 <= 28.3056478405316
 r_63: + xp_23_3 + xp_23_2 + xp_22_3 + xp_11_2 + xp_5_1
 <= 28.3056478405316
 r_64: + xp_22_4 + xp_17_2 + xp_5_2 <= 28.3056478405316
 r_65: + xp_20_2 + xp_20_1 + xp_14_1 + xp_7_1 + xp_2_4 + xp_0_3
 <= 29.0077821011673
 r_66: + xp_21_3 + xp_20_3 + xp_7_0 <= 30
 r_67: + xp_20_4 + xp_19_2 + xp_10_0 <= 30
 r_68: + xp_20_0 <= 29.4574468085106

Bounds
 0 <= xp_0_0 <= 28.7539899975348
 0 <= xp_0_1 <= 2.79322473265003
 0 <= xp_0_2 <= 13.6786888156049
 0 <= xp_0_3 <= 7.35278767118499
 0 <= xp_0_4 <= 1.39661236632501
 0 <= xp_0_5 <= 4.55956293853496
 0 <= xp_0_6 <= 4.55956293853496
 0 <= xp_1_0 <= 22.2227170192374
 0 <= xp_1_1 <= 11.7754360538016
 0 <= xp_1_2 <= 1.32815508836585
 0 <= xp_2_0 <= 24.0438155760141
 0 <= xp_2_1 <= 4.55956293853496
 0 <= xp_2_2 <= 3.73800265001798
 0 <= xp_2_3 <= 1.24600088333933
 0 <= xp_2_4 <= 1.24600088333933
 0 <= xp_3_0 <= 24.4682744090882
 0 <= xp_3_1 <= 7.0652525131551
 0 <= xp_3_2 <= 0.835229858206712
 0 <= xp_4_0 <= 26.2893456084874
 0 <= xp_5_0 <= 13.1446728042437
 0 <= xp_5_1 <= 4.38155760141456
 0 <= xp_5_2 <= 8.76311520282912
 0 <= xp_6_0 <= 19.7170092063655
 0 <= xp_6_1 <= 3.9434018412731
 0 <= xp_7_0 <= 18.8954671561003
 0 <= xp_7_1 <= 3.77909343122006
 0 <= xp_8_0 <= 16.9785357054814
 0 <= xp_8_1 <= 3.39570714109628
 0 <= xp_9_0 <= 18.8954671561003
 0 <= xp_10_0 <= 18.8954671561003
 0 <= xp_11_0 <= 27.3573776312098
 0 <= xp_11_1 <= 16.2254418140495
 0 <= xp_11_2 <= 6.25739827083135
 0 <= xp_11_3 <= 9.96804354321812
 0 <= xp_12_0 <= 17.745308285729
 0 <= xp_13_0 <= 14.3769858796415
 0 <= xp_13_1 <= 2.8753971759283
 0 <= xp_14_0 <= 13.6923675044205
 0 <= xp_14_1 <= 2.7384735008841
 0 <= xp_15_0 <= 16.2665325952515
 0 <= xp_16_0 <= 15.6092989550394
 0 <= xp_17_0 <= 28.9046014805205
 0 <= xp_17_1 <= 10.6663497263806
 0 <= xp_17_2 <= 3.05339339392283
 0 <= xp_17_3 <= 3.05339339392283
 0 <= xp_18_0 <= 20.0182321723369
 0 <= xp_18_1 <= 13.6786888156049
 0 <= xp_18_2 <= 4.55956293853496
 0 <= xp_18_3 <= 2.72477657381674
 0 <= xp_18_4 <= 2.72477657381674
 0 <= xp_19_0 <= 30
 0 <= xp_19_1 <= 2.64262236879022
 0 <= xp_19_2 <= 5.28524473758044
 0 <= xp_19_3 <= 2.64262236879022
 0 <= xp_19_4 <= 2.64262236879022
 0 <= xp_20_0 <= 27.8092120801668
 0 <= xp_20_1 <= 7.06526163228098
 0 <= xp_20_2 <= 2.50569869374601
 0 <= xp_20_3 <= 2.50569869374601
 0 <= xp_20_4 <= 2.50569869374601
 0 <= xp_21_0 <= 27.2067479099723
 0 <= xp_21_1 <= 4.40893321729752
 0 <= xp_21_2 <= 2.20446660864876
 0 <= xp_21_3 <= 4.55956293853496
 0 <= xp_21_4 <= 2.20446660864876
 0 <= xp_22_0 <= 17.5399273327256
 0 <= xp_22_1 <= 4.55956293853496
 0 <= xp_22_2 <= 1.93061925856035
 0 <= xp_22_3 <= 4.55956293853496
 0 <= xp_22_4 <= 1.93061925856035
 0 <= xp_22_5 <= 8.42080145565567
 0 <= xp_23_0 <= 21.4011658498463
 0 <= xp_23_1 <= 6.49018219709532
 0 <= xp_23_2 <= 6.49018219709532
 0 <= xp_23_3 <= 4.55956293853496

End
